words_hard_train/9438.qaiger
aag 121 24 0 1 97
2
4
12
20
22
26
30
34
44
46
50
52
64
80
96
112
128
150
162
174
182
190
208
232
243
6 3 4
8 2 5
10 7 9
14 10 13
16 11 12
18 15 17
24 20 22
28 24 26
32 28 30
36 32 34
38 18 37
40 19 36
42 39 41
48 44 46
54 51 53
56 50 52
58 55 57
60 48 58
62 61 57
66 65 20
68 64 21
70 67 69
72 63 70
74 73 69
76 21 23
78 77 25
82 79 81
84 78 80
86 83 85
88 75 86
90 89 85
92 25 27
94 93 29
98 95 97
100 94 96
102 99 101
104 91 102
106 105 101
108 29 31
110 109 33
114 111 113
116 110 112
118 115 117
120 107 118
122 121 117
124 33 35
126 125 37
130 127 129
132 126 128
134 131 133
136 123 134
138 137 133
140 43 139
142 42 138
144 141 143
146 106 119
148 147 121
152 149 150
154 148 151
156 153 155
158 90 103
160 159 105
164 161 162
166 160 163
168 165 167
170 49 59
172 171 61
176 172 175
178 62 71
180 179 73
184 180 183
186 74 87
188 187 89
192 188 191
194 185 193
196 177 194
198 189 190
200 181 182
202 199 201
204 45 47
206 205 49
210 206 209
212 207 208
214 211 213
216 173 174
218 214 217
220 202 218
222 196 220
224 168 222
226 156 224
228 122 135
230 229 137
234 230 232
236 231 233
238 235 237
240 226 239
242 145 240
i0 1 x2[7]
i1 2 y1[7]
i2 2 y2[7]
i3 2 y1[2]
i4 2 y1[3]
i5 2 y1[4]
i6 2 y1[5]
i7 2 y1[6]
i8 1 x2[0]
i9 2 y1[0]
i10 1 x2[1]
i11 2 y1[1]
i12 1 x2[2]
i13 1 x2[3]
i14 1 x2[4]
i15 1 x2[5]
i16 1 x2[6]
i17 2 y2[5]
i18 2 y2[4]
i19 2 y2[1]
i20 2 y2[2]
i21 2 y2[3]
i22 2 y2[0]
i23 2 y2[6]
o0 bool[0]
c
simplified
  !=
    2 y2
    add
      1 x2
      add
        << 2
          1
        2 y1
