words_hard_train/9438.qaiger.qdimacs
p cnf 121 292
a 32 1 64 40 48 22 56 25 0
e 2 3 4 5 6 7 8 9 10 11 12 13 14 15 16 17 18 19 20 21 23 24 26 27 28 29 30 31 33 34 35 36 37 38 39 41 42 43 44 45 46 47 49 50 51 52 53 54 55 57 58 59 60 61 62 63 65 66 67 68 69 70 71 72 73 74 75 76 77 78 79 80 81 82 83 84 85 86 87 88 89 90 91 92 93 94 95 96 97 98 99 100 101 102 103 104 105 106 107 108 109 110 111 112 113 114 115 116 117 118 119 120 121 0
1 -2 3 0
-1 -3 0
2 -3 0
-1 2 4 0
1 -4 0
-2 -4 0
3 4 5 0
-3 -5 0
-4 -5 0
-5 6 7 0
5 -7 0
-6 -7 0
5 -6 8 0
-5 -8 0
6 -8 0
7 8 9 0
-7 -9 0
-8 -9 0
-10 -11 12 0
10 -12 0
11 -12 0
-12 -13 14 0
12 -14 0
13 -14 0
-14 -15 16 0
14 -16 0
15 -16 0
-16 -17 18 0
16 -18 0
17 -18 0
-9 18 19 0
9 -19 0
-18 -19 0
9 -18 20 0
-9 -20 0
18 -20 0
19 20 21 0
-19 -21 0
-20 -21 0
-22 -23 24 0
22 -24 0
23 -24 0
25 26 27 0
-25 -27 0
-26 -27 0
-25 -26 28 0
25 -28 0
26 -28 0
27 28 29 0
-27 -29 0
-28 -29 0
-24 -29 30 0
24 -30 0
29 -30 0
30 28 31 0
-30 -31 0
-28 -31 0
32 -10 33 0
-32 -33 0
10 -33 0
-32 10 34 0
32 -34 0
-10 -34 0
33 34 35 0
-33 -35 0
-34 -35 0
31 -35 36 0
-31 -36 0
35 -36 0
36 34 37 0
-36 -37 0
-34 -37 0
10 11 38 0
-10 -38 0
-11 -38 0
38 12 39 0
-38 -39 0
-12 -39 0
39 40 41 0
-39 -41 0
-40 -41 0
-39 -40 42 0
39 -42 0
40 -42 0
41 42 43 0
-41 -43 0
-42 -43 0
37 -43 44 0
-37 -44 0
43 -44 0
44 42 45 0
-44 -45 0
-42 -45 0
12 13 46 0
-12 -46 0
-13 -46 0
46 14 47 0
-46 -47 0
-14 -47 0
47 48 49 0
-47 -49 0
-48 -49 0
-47 -48 50 0
47 -50 0
48 -50 0
49 50 51 0
-49 -51 0
-50 -51 0
45 -51 52 0
-45 -52 0
51 -52 0
52 50 53 0
-52 -53 0
-50 -53 0
14 15 54 0
-14 -54 0
-15 -54 0
54 16 55 0
-54 -55 0
-16 -55 0
55 56 57 0
-55 -57 0
-56 -57 0
-55 -56 58 0
55 -58 0
56 -58 0
57 58 59 0
-57 -59 0
-58 -59 0
53 -59 60 0
-53 -60 0
59 -60 0
60 58 61 0
-60 -61 0
-58 -61 0
16 17 62 0
-16 -62 0
-17 -62 0
62 18 63 0
-62 -63 0
-18 -63 0
63 64 65 0
-63 -65 0
-64 -65 0
-63 -64 66 0
63 -66 0
64 -66 0
65 66 67 0
-65 -67 0
-66 -67 0
61 -67 68 0
-61 -68 0
67 -68 0
68 66 69 0
-68 -69 0
-66 -69 0
21 69 70 0
-21 -70 0
-69 -70 0
-21 -69 71 0
21 -71 0
69 -71 0
70 71 72 0
-70 -72 0
-71 -72 0
-53 59 73 0
53 -73 0
-59 -73 0
73 60 74 0
-73 -74 0
-60 -74 0
74 -75 76 0
-74 -76 0
75 -76 0
-74 75 77 0
74 -77 0
-75 -77 0
76 77 78 0
-76 -78 0
-77 -78 0
-45 51 79 0
45 -79 0
-51 -79 0
79 52 80 0
-79 -80 0
-52 -80 0
80 -81 82 0
-80 -82 0
81 -82 0
-80 81 83 0
80 -83 0
-81 -83 0
82 83 84 0
-82 -84 0
-83 -84 0
24 29 85 0
-24 -85 0
-29 -85 0
85 30 86 0
-85 -86 0
-30 -86 0
-86 87 88 0
86 -88 0
-87 -88 0
-31 35 89 0
31 -89 0
-35 -89 0
89 36 90 0
-89 -90 0
-36 -90 0
-90 91 92 0
90 -92 0
-91 -92 0
-37 43 93 0
37 -93 0
-43 -93 0
93 44 94 0
-93 -94 0
-44 -94 0
-94 95 96 0
94 -96 0
-95 -96 0
92 96 97 0
-92 -97 0
-96 -97 0
88 -97 98 0
-88 -98 0
97 -98 0
94 -95 99 0
-94 -99 0
95 -99 0
90 -91 100 0
-90 -100 0
91 -100 0
99 100 101 0
-99 -101 0
-100 -101 0
22 23 102 0
-22 -102 0
-23 -102 0
102 24 103 0
-102 -103 0
-24 -103 0
-103 104 105 0
103 -105 0
-104 -105 0
103 -104 106 0
-103 -106 0
104 -106 0
105 106 107 0
-105 -107 0
-106 -107 0
86 -87 108 0
-86 -108 0
87 -108 0
-107 108 109 0
107 -109 0
-108 -109 0
-101 -109 110 0
101 -110 0
109 -110 0
-98 -110 111 0
98 -111 0
110 -111 0
-84 -111 112 0
84 -112 0
111 -112 0
-78 -112 113 0
78 -113 0
112 -113 0
-61 67 114 0
61 -114 0
-67 -114 0
114 68 115 0
-114 -115 0
-68 -115 0
-115 -116 117 0
115 -117 0
116 -117 0
115 116 118 0
-115 -118 0
-116 -118 0
117 118 119 0
-117 -119 0
-118 -119 0
-113 119 120 0
113 -120 0
-119 -120 0
72 -120 121 0
-72 -121 0
120 -121 0
-121 0
